stanene-F                               
   1.00000000000000     
     5.0237361284356643    0.0000000000000000    0.0000000000000000
    -2.5118680642178322    4.3506831090993678   -0.0000000000000000
     0.0000000000000000    0.0000000000000000   20.0302450341901235
   Sn   F 
     2     2
Direct
  0.3333333469999999  0.6666666930000034  0.4896584288286110
  0.6666666730000017  0.3333333469999999  0.5151905421839282
  0.3333333189999976  0.6666666389999989  0.3915751197338939
  0.6666666599999971  0.3333333189999976  0.6135758982535747
 
  0.00000000E+00  0.00000000E+00  0.00000000E+00
  0.00000000E+00  0.00000000E+00  0.00000000E+00
  0.00000000E+00  0.00000000E+00  0.00000000E+00
  0.00000000E+00  0.00000000E+00  0.00000000E+00
