stanene-F
   1.00000000000000
     5.0250000954000003    0.0000000000000000    0.0000000000000000
    -2.5125000477000001    4.3517777365999999    0.0000000000000000
     0.0000000000000000    0.0000000000000000   20.0000000000000000
   Sn   F
     2     2
Direct
  0.3333333469999999  0.6666666930000034  0.4925105900553514
  0.6666666730000017  0.3333333469999999  0.5143303730504749
  0.3333333189999976  0.6666666389999989  0.3909069447552698
  0.6666666599999971  0.3333333189999976  0.6122520811389046

