stanane                                 
   1.00000000000000     
     4.7199997902000002    0.0000000000000000    0.0000000000000000
    -2.3599998951000001    4.0876397241999998    0.0000000000000000
     0.0000000000000000    0.0000000000000000   20.0000000000000000
   Sn   H 
     2     2
Direct
  0.3333333890000034  0.6666667779999997  0.4820812403906980
  0.6666666440000029  0.3333333890000034  0.5230248001648145
  0.3333333599999975  0.6666667189999984  0.3953111368353081
  0.6666666799999987  0.3333333599999975  0.6095828116091802
 
  0.00000000E+00  0.00000000E+00  0.00000000E+00
  0.00000000E+00  0.00000000E+00  0.00000000E+00
  0.00000000E+00  0.00000000E+00  0.00000000E+00
  0.00000000E+00  0.00000000E+00  0.00000000E+00
