k-points
0
Monkhorst-Pack
11  11  1
0   0   0
