stanane
1.0
        4.7199997902         0.0000000000         0.0000000000
       -2.3599998951         4.0876397242         0.0000000000
        0.0000000000         0.0000000000        20.0000000000
   Sn    H
    2    2
Direct
     0.333333389         0.666666778         0.483443844
     0.666666644         0.333333389         0.526556145
     0.333333360         0.666666719         0.400000000
     0.666666680         0.333333360         0.600000000

