stanene
4.72
        1.0000000000         0.0000000000         0.0000000000
       -0.5000000000         0.8660254037         0.0000000000
        0.0000000000         0.0000000000        20.0000000000/4.72
   Sn
    2
Direct
     0.333333349         0.666666698         0.500000000
     0.666666675         0.333333349         0.5100
