stanene                                 
1.0
       69.9954299927         0.0000000000         0.0000000000
       -2.3331809044         4.0411878697         0.0000000000
        0.0000000000         0.0000000000        20.1102237701
   Sn
   20
Direct
     0.022222224         0.666666708         0.483443857
     0.088888887         0.666666708         0.483443857
     0.155555564         0.666666708         0.483443857
     0.222222215         0.666666708         0.483443857
     0.288888906         0.666666708         0.483443857
     0.355555556         0.666666708         0.483443857
     0.422222234         0.666666708         0.483443857
     0.488888911         0.666666708         0.483443857
     0.555555534         0.666666708         0.483443857
     0.622222266         0.666666708         0.483443857
     0.044444443         0.333333354         0.526556143
     0.111111107         0.333333354         0.526556143
     0.177777778         0.333333354         0.526556143
     0.244444456         0.333333354         0.526556143
     0.311111133         0.333333354         0.526556143
     0.377777783         0.333333354         0.526556143
     0.444444434         0.333333354         0.526556143
     0.511111111         0.333333354         0.526556143
     0.577777843         0.333333354         0.526556143
     0.644444466         0.333333354         0.526556143
