stanane
   1.00000000000000
     4.7382815605512709    0.0000000000000000    0.0000000000000000
    -2.3691407802756355    4.1034722017506970   -0.0000000000000000
    -0.0000000000000000   -0.0000000000000000   20.0968293053900382
   Sn   H
     2     2
Direct
  0.3333333890000034  0.6666667779999997  0.4827317820599010
  0.6666666440000029  0.3333333890000034  0.5221193414725981
  0.3333333599999975  0.6666667189999984  0.3965334583907777
  0.6666666799999987  0.3333333599999975  0.6086154070767165
