System = fcc Si 
ICHARG = 11 #charge read file 在原有自洽计算的基础上计算，将会读取CHGCAR
ENCUT  =    240
ISMEAR = 0; SIGMA = 0.01; # 在自洽计算基础上的计算ISMEAR可以设为0，SIGMA越小计算结果越精确，计算耗时越长
LORBIT = 11
