k-points for bandstructure L-G-X-U K-G # 计算在一系列高对称线上的能带结构
 100
line
reciprocal # 以下每相邻两行代表对易空间中的两点，相连成一条直线
  0.50000  0.50000  0.50000    1
  0.00000  0.00000  0.00000    1

  0.00000  0.00000  0.00000    1
  0.00000  0.50000  0.50000    1

  0.00000  0.50000  0.50000    1
  0.25000  0.62500  0.62500    1

  0.37500  0.7500   0.37500    1
  0.00000  0.00000  0.00000    1
