stanene
   1.00000000000000
     4.6864525227914147    0.0000000000001449   -0.0000000000000001
    -2.3432262614457047    4.0585869384235238    0.0000000000000003
    -0.0000000000000009    0.0000000000000002   19.8869334432035316
   Sn
     2
Direct
  0.3333333670000016  0.6666667340000032  0.4833237616280190
  0.6666666839999991  0.3333333670000016  0.5266762283719781

