stanene
   1.00000000000000
     4.6663615759095789    0.0000000000004211    0.0000000000000001
    -2.3331807880043329    4.0411876680368461   -0.0000000000000002
     0.0000000000000002    0.0000000000000001   20.1102243386460451
   Sn
     2
Direct
  0.3333333670000016  0.6666667340000032  0.4834438444730659
  0.6666666839999991  0.3333333670000016  0.5265561455269310

