System = fcc Si 
# ICHARG = 11 #charge read file
ENCUT  =    240
ISMEAR = -5 #tetrahedron 在费米面附近有些能级被填充，有些未被填充，存在一定模糊度，该参数来描述这一模糊度，对绝缘体的自洽计算，取-5，对金属，应当取大一些的值，对态密度的计算和总能量的精确计算，取-5，有时取-5会导致不收敛，可以先用较大的值做自洽计算
LORBIT = 11 # 计算各个轨道的态密度分量并储存在PROCAR中
