k-points
 0
Monkhorst Pack # 态密度的计算需要更多的k点，对于更大的体系，过多的k点会导致计算用时很长，也可以先做自洽计算，再从自洽计算的结果出发做精确的计算以提高收敛速度
 21 21 21
 0  0  0
