stanane
   1.00000000000000
     4.7188634342793483    0.0000000000000000    0.0000000000000000
    -2.3594317171396741    4.0866556111049528    0.0000000000000000
     0.0000000000000000    0.0000000000000000   20.0217424489184594
   Sn   H
     2     2
Direct
  0.3333333890000034  0.6666667779999997  0.4820833440723067
  0.6666666440000029  0.3333333890000034  0.5229650723976597
  0.3333333599999975  0.6666667189999984  0.3952991222839234
  0.6666666799999987  0.3333333599999975  0.6096524502461108
