System = stanene-F
ISTART = 0 ; ICHARG=2
ENCUT  =    500
ISMEAR = 0; SIGMA = 0.05;
NSW    =  10; IBRION =  2
ISIF   =  2
EDIFFG = -0.0001

LSORBIT = .TRUE.
MAGMOM = 12*0

GGA = PE

LMAXMIX = 4

NCORE = 4
