stanene-F
1.0
        5.0250000954         0.0000000000         0.0000000000
       -2.5125000477         4.3517777366         0.0000000000
        0.0000000000         0.0000000000        20.0000000000
   Sn    F
    2    2
Direct
     0.333333347         0.666666693         0.483443844
     0.666666673         0.333333347         0.526556145
     0.333333319         0.666666639         0.400000000
     0.666666660         0.333333319         0.600000000
