stanene-F                               
   1.00000000000000     
     5.0016071119829775   -0.0000000000000000    0.0000000000000000
    -2.5008035559914887    4.3315188186910474   -0.0000000000000000
     0.0000000000000000   -0.0000000000000000   20.0544718072899393
   Sn   F 
     2     2
Direct
  0.3333333469999999  0.6666666930000034  0.4896123166678393
  0.6666666730000017  0.3333333469999999  0.5154426852894735
  0.3333333189999976  0.6666666389999989  0.3910589021046455
  0.6666666599999971  0.3333333189999976  0.6138860849380492
 
  0.00000000E+00  0.00000000E+00  0.00000000E+00
  0.00000000E+00  0.00000000E+00  0.00000000E+00
  0.00000000E+00  0.00000000E+00  0.00000000E+00
  0.00000000E+00  0.00000000E+00  0.00000000E+00
