k-points for bandstructure M-G-K-M
 50
line
reciprocal
  0.50000  0.00000  0.00000 
  0.00000  0.00000  0.00000 

  0.00000  0.00000  0.00000 
  0.33333  0.33333  0.00000 

  0.33333  0.33333  0.00000  
  0.50000  0.50000  0.00000 
