System = stanene
ISTART = 0
ISMEAR = 0
SIGMA = 0.05
ENCUT = 500
EDIFF = 1E-3

LSORBIT = .TRUE.
MAGMOM = 6*0

GGA = PE

LMAXMIX = 4

NCORE = 4
AMIN = 0.01
