System = stanene
ISTART = 0 ; ICHARG=2
ENCUT  =    500
ISMEAR = 0; SIGMA = 0.05;
NSW    =  20; IBRION =  2
ISIF   =  3
EDIFFG = -0.0001

GGA = PE

LMAXMIX = 4

NCORE = 4
