stanene
1.0
        4.6750001907         0.0000000000         0.0000000000
       -2.3375000954         4.0486689279         0.0000000000
        0.0000000000         0.0000000000        20.0000000000
   Sn
    2
Direct
     0.333333367         0.666666734         0.500000000
     0.666666684         0.333333367         0.509999990

