k-points for bandstructure M-G-K-M
 10
line
reciprocal
  0.00000  0.00000  0.00000 
  0.00000  0.10000  0.00000 
