stanene-F
1.0
       80.0257110596         0.0000000000         0.0000000000
       -2.5008040474         4.3315183378         0.0000000000
        0.0000000000         0.0000000000        20.0544719696
   Sn    F
   16   16
Direct
     0.020833333         0.666666660         0.489612309
     0.083333338         0.666666660         0.489612309
     0.145833326         0.666666660         0.489612309
     0.208333314         0.666666660         0.489612309
     0.270833362         0.666666660         0.489612309
     0.333333350         0.666666660         0.489612309
     0.395833362         0.666666660         0.489612309
     0.458333302         0.666666660         0.489612309
     0.041666669         0.333333330         0.515442655
     0.104166669         0.333333330         0.515442655
     0.166666675         0.333333330         0.515442655
     0.229166651         0.333333330         0.515442655
     0.291666663         0.333333330         0.515442655
     0.354166651         0.333333330         0.515442655
     0.416666615         0.333333330         0.515442655
     0.479166651         0.333333330         0.515442655
     0.020833333         0.666666605         0.391058898
     0.083333330         0.666666605         0.391058898
     0.145833336         0.666666605         0.391058898
     0.208333324         0.666666605         0.391058898
     0.270833360         0.666666605         0.391058898
     0.333333348         0.666666605         0.391058898
     0.395833360         0.666666605         0.391058898
     0.458333300         0.666666605         0.391058898
     0.041666668         0.333333302         0.613886073
     0.104166674         0.333333302         0.613886073
     0.166666674         0.333333302         0.613886073
     0.229166650         0.333333302         0.613886073
     0.291666662         0.333333302         0.613886073
     0.354166650         0.333333302         0.613886073
     0.416666614         0.333333302         0.613886073
     0.479166650         0.333333302         0.613886073

