System = stanene
#ISTART = 0
ICHARG = 11
ISMEAR = 0
SIGMA = 0.05
ENCUT = 250
EDIFF = 1E-4

LSORBIT = .TRUE.
MAGMOM = 120*0

LWAVE = .FALSE.
LCHARGE = .FALSE.

GGA = PE

LMAXMIX = 4

NCORE = 4
AMIN = 0.01
LREAL= Auto
