stanene
1.0
      116.6500015259         0.0000000000         0.0000000000
       -2.3330004828         4.0408741276         0.0000000000
        0.0000000000         0.0000000000        20.0000000000
   Sn
   40
Direct
     0.013333335         0.666666725         0.500000000
     0.053333332         0.666666725         0.500000000
     0.093333334         0.666666725         0.500000000
     0.133333337         0.666666725         0.500000000
     0.173333331         0.666666725         0.500000000
     0.213333334         0.666666725         0.500000000
     0.253333320         0.666666725         0.500000000
     0.293333355         0.666666725         0.500000000
     0.333333325         0.666666725         0.500000000
     0.373333361         0.666666725         0.500000000
     0.413333331         0.666666725         0.500000000
     0.453333333         0.666666725         0.500000000
     0.493333368         0.666666725         0.500000000
     0.533333371         0.666666725         0.500000000
     0.573333374         0.666666725         0.500000000
     0.613333311         0.666666725         0.500000000
     0.653333314         0.666666725         0.500000000
     0.693333316         0.666666725         0.500000000
     0.733333319         0.666666725         0.500000000
     0.773333321         0.666666725         0.500000000
     0.026666666         0.333333363         0.509299994
     0.066666668         0.333333363         0.509299994
     0.106666667         0.333333363         0.509299994
     0.146666678         0.333333363         0.509299994
     0.186666680         0.333333363         0.509299994
     0.226666667         0.333333363         0.509299994
     0.266666686         0.333333363         0.509299994
     0.306666655         0.333333363         0.509299994
     0.346666658         0.333333363         0.509299994
     0.386666661         0.333333363         0.509299994
     0.426666663         0.333333363         0.509299994
     0.466666633         0.333333363         0.509299994
     0.506666636         0.333333363         0.509299994
     0.546666671         0.333333363         0.509299994
     0.586666706         0.333333363         0.509299994
     0.626666709         0.333333363         0.509299994
     0.666666646         0.333333363         0.509299994
     0.706666649         0.333333363         0.509299994
     0.746666717         0.333333363         0.509299994
     0.786666720         0.333333363         0.509299994

