# 本文件用于设置计算所需参数
System = fcc Si # 体系的名称，可以随便取
ISTART = 0 ; ICHARG = 2 # 从晶体结构开始计算
ENCUT = 240 # 展开式中平面波的最大能量（eV），可认为是基矢的数量
ISMEAR = 0; SIGMA = 0.1 # 
