# 本文件用于储存布里渊区的离散化方案
k-points
 0
Monkhorst Pack # 每个基矢方向上离散化为11份
 11 11 11
 0  0  0

# POTCAR 用于储存计算所需各种原子的赝势，由VASP软件提供