stanene
1.0
       69.9899978638         0.0000000000         0.0000000000
       -2.3330004828         4.0408741276         0.0000000000
        0.0000000000         0.0000000000        20.0000000000
   Sn
   20
Direct
     0.022222226         0.666666725         0.500000000
     0.088888890         0.666666725         0.500000000
     0.155555564         0.666666725         0.500000000
     0.222222224         0.666666725         0.500000000
     0.288888898         0.666666725         0.500000000
     0.355555572         0.666666725         0.500000000
     0.422222219         0.666666725         0.500000000
     0.488888892         0.666666725         0.500000000
     0.555555566         0.666666725         0.500000000
     0.622222295         0.666666725         0.500000000
     0.044444445         0.333333363         0.509299994
     0.111111112         0.333333363         0.509299994
     0.177777786         0.333333363         0.509299994
     0.244444446         0.333333363         0.509299994
     0.311111147         0.333333363         0.509299994
     0.377777794         0.333333363         0.509299994
     0.444444468         0.333333363         0.509299994
     0.511111060         0.333333363         0.509299994
     0.577777789         0.333333363         0.509299994
     0.644444463         0.333333363         0.509299994

